\ENCODING=ISO-8859-1
\Problem name: IloCplex

Minimize
 obj: 169 x0 + 346 x1 + 245 x2 + 349 x3 + 77 x4 + 309 x5 + 307 x6 + 303 x8
      + 26 x9 + 83 x10 + 128 x11 + 278 x12 + 206 x13 + 181 x14 + 104 x15
      + 374 x16 + 750 x17 + 167 x18 + 568 x19 + 182 x20 + 218 x21 + 48 x26
      + 267 x28 + 232 x30 + 121 x32 + 328 x33 + 267 x34 + 101 x35 + 342 x36
      + 341 x37 + 330 x38 + 294 x39 + 23 x40 + 200 x41 + 132 x42 + 132 x43
      + 178 x46 + 68 x47 + 241 x50 + 241 x51 + 373 x52 + 151 x53 + 418 x54
      + 130 x55 + 184 x56 + 219 x57 + 175 x58 + 61 x59 + 148 x60 + 409 x61
      + 341 x62 + 321 x63 + 280 x64 + 91 x65 + 131 x66 + 265 x68 + 220 x69
      + 199 x71 + 22 x72 + 226 x73 + 82 x74 + 82 x75 + 335 x77 + 155 x80
      + 257 x82 + 257 x83 + 155 x84 + 265 x85 + 373 x86 + 197 x87 + 182 x88
      + 137 x90 + 197 x91 + 286 x92 + 86 x94 + 170 x95 + 193 x96 + 282 x97
Subject To
 c0:   x0 + x61 + x66 + x67 + x98  = 1
 c1:   x1 + x49 + x80 + x84  = 1
 c2:   x2 + x57 + x76  = 1
 c3:   x3 + x46 + x48  = 1
 c4:   x4 + x78  = 1
 c5:   x5 + x32 + x55  = 1
 c6:   x6 + x33 + x34 + x60 + x95  = 1
 c7:   x7 + x50 + x51 + x65  = 1
 c8:   x8 + x36 + x52 + x59 + x86  = 1
 c9:   x0 + x74 + x75  = 1
 c10:  x9 + x41 + x46 + x66  = 1
 c11:  x10 + x40 + x59  = 1
 c12:  x11 + x38 + x56 + x57 + x58 + x80 + x84  = 1
 c13:  x2 + x72  = 1
 c14:  x3 + x55 + x60  = 1
 c15:  x12 + x32 + x33 + x52 + x86 + x90  = 1
 c16:  x1 + x50 + x51 + x65  = 1
 c17:  x13 + x34 + x61 + x82 + x83 + x95  = 1
 c18:  x4  = 1
 c19:  x6 + x36 + x44 + x92  = 1
 c20:  x8 + x37 + x62 + x69 + x74 + x75  = 1
 c21:  x9  = 1
 c22:  x11 + x52 + x86 + x90 + x96  = 1
 c23:  x14 + x40 + x72  = 1
 c24:  x5 + x33 + x34 + x38 + x50 + x51 + x82 + x83  = 1
 c25:  x15 + x58 + x93  = 1
 c26:  x10 + x56 + x89 + x94  = 1
 c27:  x13 + x81  = 1
 c28:  x16 + x41 + x45 + x73  = 1
 c29:  x12 + x35 + x53 + x68 + x85 + x87 + x91  = 1
 c30:  x17 + x28 + x29 + x38 + x77 + x82 + x83 + x97  = 1
 c31:  x18 + x37 + x62 + x63 + x69 + x92  = 1
 c32:  x15 + x94  = 1
 c33:  x14 + x73 + x96  = 1
 c34:  x19 + x28 + x30 + x35 + x37 + x54 + x62 + x68 + x77 + x85 + x87 + x91
        = 1
 c35:  x18 + x39 + x53  = 1
 c36:  x20 + x64 + x70  = 1
 c37:  x21 + x28 + x63 + x87 + x91  = 1
 c38:  x16 + x47 + x54 + x68 + x71 + x77 + x85 + x97  = 1
 c39:  x17 + x30 + x42 + x43 + x88  = 1
 c40:  x26 + x47  = 1
 c41:  x21 + x79  = 1
 c42:  x19 + x31 + x39  = 1
 c43:  x20  = 1
 c44:  x22  = 1
 c45:  x23 + x42 + x43 + x71  = 1
 c46:  x26 + x54 + x64  = 1
 c47:  x24  = 1
 c48:  x25 + x88  = 1
 c49:  x26  = 1
 c_nj: x0 + x1 + x2 + x3 + x4 + x5 + x6 + x8 + x9 + x10 + x11 + x12 + x13 + x14
       + x15 + x16 + x17 + x18 + x19 + x20 + x21 + x26 + x7 + x22 + x23 + x24
       + x25 + x28 + x29 + x30 + x31 + x32 + x33 + x34 + x35 + x36 + x37 + x38
       + x39 + x40 + x41 + x42 + x43 + x44 + x45 + x46 + x47 + x48 + x49 + x50
       + x51 + x52 + x53 + x54 + x55 + x56 + x57 + x58 + x59 + x60 + x61 + x62
       + x63 + x64 + x65 + x66 + x67 + x68 + x69 + x70 + x71 + x72 + x73 + x74
       + x75 + x76 + x77 + x78 + x79 + x80 + x81 + x82 + x83 + x84 + x85 + x86
       + x87 + x88 + x89 + x90 + x91 + x92 + x93 + x94 + x95 + x96 + x97 + x98
        = 27
Bounds
 0 <= x0 <= 1
 0 <= x1 <= 1
 0 <= x2 <= 1
 0 <= x3 <= 1
 0 <= x4 <= 1
 0 <= x5 <= 1
 0 <= x6 <= 1
 0 <= x8 <= 1
 0 <= x9 <= 1
 0 <= x10 <= 1
 0 <= x11 <= 1
 0 <= x12 <= 1
 0 <= x13 <= 1
 0 <= x14 <= 1
 0 <= x15 <= 1
 0 <= x16 <= 1
 0 <= x17 <= 1
 0 <= x18 <= 1
 0 <= x19 <= 1
 0 <= x20 <= 1
 0 <= x21 <= 1
 0 <= x26 <= 1
 0 <= x7 <= 1
 0 <= x22 <= 1
 0 <= x23 <= 1
 0 <= x24 <= 1
 0 <= x25 <= 1
 0 <= x28 <= 1
 0 <= x29 <= 1
 0 <= x30 <= 1
 0 <= x31 <= 1
 0 <= x32 <= 1
 0 <= x33 <= 1
 0 <= x34 <= 1
 0 <= x35 <= 1
 0 <= x36 <= 1
 0 <= x37 <= 1
 0 <= x38 <= 1
 0 <= x39 <= 1
 0 <= x40 <= 1
 0 <= x41 <= 1
 0 <= x42 <= 1
 0 <= x43 <= 1
 0 <= x44 <= 1
 0 <= x45 <= 1
 0 <= x46 <= 1
 0 <= x47 <= 1
 0 <= x48 <= 1
 0 <= x49 <= 1
 0 <= x50 <= 1
 0 <= x51 <= 1
 0 <= x52 <= 1
 0 <= x53 <= 1
 0 <= x54 <= 1
 0 <= x55 <= 1
 0 <= x56 <= 1
 0 <= x57 <= 1
 0 <= x58 <= 1
 0 <= x59 <= 1
 0 <= x60 <= 1
 0 <= x61 <= 1
 0 <= x62 <= 1
 0 <= x63 <= 1
 0 <= x64 <= 1
 0 <= x65 <= 1
 0 <= x66 <= 1
 0 <= x67 <= 1
 0 <= x68 <= 1
 0 <= x69 <= 1
 0 <= x70 <= 1
 0 <= x71 <= 1
 0 <= x72 <= 1
 0 <= x73 <= 1
 0 <= x74 <= 1
 0 <= x75 <= 1
 0 <= x76 <= 1
 0 <= x77 <= 1
 0 <= x78 <= 1
 0 <= x79 <= 1
 0 <= x80 <= 1
 0 <= x81 <= 1
 0 <= x82 <= 1
 0 <= x83 <= 1
 0 <= x84 <= 1
 0 <= x85 <= 1
 0 <= x86 <= 1
 0 <= x87 <= 1
 0 <= x88 <= 1
 0 <= x89 <= 1
 0 <= x90 <= 1
 0 <= x91 <= 1
 0 <= x92 <= 1
 0 <= x93 <= 1
 0 <= x94 <= 1
 0 <= x95 <= 1
 0 <= x96 <= 1
 0 <= x97 <= 1
 0 <= x98 <= 1
End
